QPLIB_2834
LCQ
minimize
156 # number of variables
86 # number of constraints
0.0 # default value for linear coefficients in objective
35 # number of non-default linear coefficients in objective
1 1.0
2 1.0
3 1.0
4 1.0
5 1.0
6 1.0
7 1.0
8 1.0
9 1.0
10 1.0
11 1.0
12 1.0
13 1.0
14 1.0
15 1.0
16 1.0
17 1.0
18 1.0
19 1.0
20 1.0
21 1.0
22 1.0
23 1.0
24 1.0
25 1.0
26 1.0
27 1.0
28 1.0
29 1.0
30 1.0
31 1.0
32 1.0
33 1.0
34 1.0
35 1.0
0.0 # objective constant
300 # number of quadratic terms in all constraints
15 49 34 2.0
15 49 34 -2.0
15 49 34 -2.0
15 49 34 -2.0
15 49 34 -2.0
15 49 34 -2.0
16 1 1 2.0
16 1 1 -2.0
16 1 1 -2.0
16 1 1 -2.0
16 1 1 -2.0
16 1 1 -2.0
17 2073074569 1651076121 2.0
17 2073074569 1651076121 -2.0
17 2073074569 1651076121 -2.0
17 2073074569 1651076121 -2.0
17 2073074569 1651076121 -2.0
17 2073074569 1651076121 -2.0
18 1668574818 32707 2.0
18 1668574818 32707 -2.0
18 1668574818 32707 -2.0
18 1668574818 32707 -2.0
18 1668574818 32707 -2.0
18 1668574818 32707 -2.0
19 2073074569 1651076196 2.0
19 2073074569 1651076196 -2.0
19 2073074569 1651076196 -2.0
19 2073074569 1651076196 -2.0
19 2073074569 1651076196 -2.0
19 2073074569 1651076196 -2.0
20 1932407863 32707 2.0
20 1932407863 32707 -2.0
20 1932407863 32707 -2.0
20 1932407863 32707 -2.0
20 1932407863 32707 -2.0
20 1932407863 32707 -2.0
21 1851859056 33 2.0
21 1851859056 33 -2.0
21 1851859056 33 -2.0
21 1851859056 33 -2.0
21 1851859056 33 -2.0
21 1851859056 33 -2.0
22 540090485 1 2.0
22 540090485 1 -2.0
22 540090485 1 -2.0
22 540090485 1 -2.0
22 540090485 1 -2.0
22 540090485 1 -2.0
23 49 49 2.0
23 49 49 -2.0
23 49 49 -2.0
23 49 49 -2.0
23 49 49 -2.0
23 49 49 -2.0
24 1 1 2.0
24 1 1 -2.0
24 1 1 -2.0
24 1 1 -2.0
24 1 1 -2.0
24 1 1 -2.0
25 1651076121 1 2.0
25 1651076121 1 -2.0
25 1651076121 1 -2.0
25 1651076121 1 -2.0
25 1651076121 1 -2.0
25 1651076121 1 -2.0
26 1668574818 1 2.0
26 1668574818 1 -2.0
26 1668574818 1 -2.0
26 1668574818 1 -2.0
26 1668574818 1 -2.0
26 1668574818 1 -2.0
27 1651076196 50 2.0
27 1651076196 50 -2.0
27 1651076196 50 -2.0
27 1651076196 50 -2.0
27 1651076196 50 -2.0
27 1651076196 50 -2.0
28 1932407863 1 2.0
28 1932407863 1 -2.0
28 1932407863 1 -2.0
28 1932407863 1 -2.0
28 1932407863 1 -2.0
28 1932407863 1 -2.0
29 1851859056 1651076121 2.0
29 1851859056 1651076121 -2.0
29 1851859056 1651076121 -2.0
29 1851859056 1651076121 -2.0
29 1851859056 1651076121 -2.0
29 1851859056 1651076121 -2.0
30 1668834403 540090485 2.0
30 1668834403 540090485 -2.0
30 1668834403 540090485 -2.0
30 1668834403 540090485 -2.0
30 1668834403 540090485 -2.0
30 1668834403 540090485 -2.0
31 1651076196 49 2.0
31 1651076196 49 -2.0
31 1651076196 49 -2.0
31 1651076196 49 -2.0
31 1651076196 49 -2.0
31 1651076196 49 -2.0
32 1932407863 1 2.0
32 1932407863 1 -2.0
32 1932407863 1 -2.0
32 1932407863 1 -2.0
32 1932407863 1 -2.0
32 1932407863 1 -2.0
33 1684152432 1 2.0
33 1684152432 1 -2.0
33 1684152432 1 -2.0
33 1684152432 1 -2.0
33 1684152432 1 -2.0
33 1684152432 1 -2.0
34 540156025 1 2.0
34 540156025 1 -2.0
34 540156025 1 -2.0
34 540156025 1 -2.0
34 540156025 1 -2.0
34 540156025 1 -2.0
35 824198449 50 2.0
35 824198449 50 -2.0
35 824198449 50 -2.0
35 824198449 50 -2.0
35 824198449 50 -2.0
35 824198449 50 -2.0
36 807416114 1 2.0
36 807416114 1 -2.0
36 807416114 1 -2.0
36 807416114 1 -2.0
36 807416114 1 -2.0
36 807416114 1 -2.0
37 1651076121 807416097 2.0
37 1651076121 807416097 -2.0
37 1651076121 807416097 -2.0
37 1651076121 807416097 -2.0
37 1651076121 807416097 -2.0
37 1651076121 807416097 -2.0
38 1668834403 807415841 2.0
38 1668834403 807415841 -2.0
38 1668834403 807415841 -2.0
38 1668834403 807415841 -2.0
38 1668834403 807415841 -2.0
38 1668834403 807415841 -2.0
39 1651076196 50 2.0
39 1651076196 50 -2.0
39 1651076196 50 -2.0
39 1651076196 50 -2.0
39 1651076196 50 -2.0
39 1651076196 50 -2.0
40 1932407863 1 2.0
40 1932407863 1 -2.0
40 1932407863 1 -2.0
40 1932407863 1 -2.0
40 1932407863 1 -2.0
40 1932407863 1 -2.0
41 1684152432 1651076122 2.0
41 1684152432 1651076122 -2.0
41 1684152432 1651076122 -2.0
41 1684152432 1651076122 -2.0
41 1684152432 1651076122 -2.0
41 1684152432 1651076122 -2.0
42 1852403556 540156025 2.0
42 1852403556 540156025 -2.0
42 1852403556 540156025 -2.0
42 1852403556 540156025 -2.0
42 1852403556 540156025 -2.0
42 1852403556 540156025 -2.0
43 1768711012 824198449 2.0
43 1768711012 824198449 -2.0
43 1768711012 824198449 -2.0
43 1768711012 824198449 -2.0
43 1768711012 824198449 -2.0
43 1768711012 824198449 -2.0
44 807416114 775173731 2.0
44 807416114 775173731 -2.0
44 807416114 775173731 -2.0
44 807416114 775173731 -2.0
44 807416114 775173731 -2.0
44 807416114 775173731 -2.0
45 1646292852 807416097 -2.0
45 1646292852 807416097 -2.0
45 1646292852 807416097 -2.0
45 1646292852 807416097 -2.0
45 1646292852 807416097 -2.0
46 824209008 807415841 -2.0
46 824209008 807415841 -2.0
46 824209008 807415841 -2.0
46 824209008 807415841 -2.0
46 824209008 807415841 -2.0
47 1970417697 50 -2.0
47 1970417697 50 -2.0
47 1970417697 50 -2.0
47 1970417697 50 -2.0
47 1970417697 50 -2.0
48 1835469423 1 -2.0
48 1835469423 1 -2.0
48 1835469423 1 -2.0
48 1835469423 1 -2.0
48 1835469423 1 -2.0
49 1651076122 49 -2.0
49 1651076122 49 -2.0
49 1651076122 49 -2.0
49 1651076122 49 -2.0
49 1651076122 49 -2.0
50 1852403556 1 -2.0
50 1852403556 1 -2.0
50 1852403556 1 -2.0
50 1852403556 1 -2.0
50 1852403556 1 -2.0
51 1768711012 306 -2.0
51 1768711012 306 -2.0
51 1768711012 306 -2.0
51 1768711012 306 -2.0
51 1768711012 306 -2.0
52 775173731 1 -2.0
52 775173731 1 -2.0
52 775173731 1 -2.0
52 775173731 1 -2.0
52 775173731 1 -2.0
53 2073074841 1646292852 -2.0
53 2073074841 1646292852 -2.0
53 2073074841 1646292852 -2.0
53 2073074841 1646292852 -2.0
53 2073074841 1646292852 -2.0
54 824209008 32707 -2.0
54 824209008 32707 -2.0
54 824209008 32707 -2.0
54 824209008 32707 -2.0
54 824209008 32707 -2.0
55 2073074841 1970417697 -2.0
55 2073074841 1970417697 -2.0
55 2073074841 1970417697 -2.0
55 2073074841 1970417697 -2.0
55 2073074841 1970417697 -2.0
56 1835469423 32707 -2.0
56 1835469423 32707 -2.0
56 1835469423 32707 -2.0
56 1835469423 32707 -2.0
56 1835469423 32707 -2.0
57 49 1 2.0
57 49 1 -2.0
58 1 1 2.0
58 1 1 -2.0
59 524289 306 2.0
59 524289 306 -2.0
60 1 1 2.0
60 1 1 -2.0
61 2073074841 36683489 2.0
61 2073074841 36683489 -2.0
62 32707 1 2.0
62 32707 1 -2.0
63 2073074841 36683537 2.0
63 2073074841 36683537 -2.0
64 32707 1 2.0
64 32707 1 -2.0
65 23 1 2.0
65 23 1 -2.0
66 23 1 2.0
66 23 1 -2.0
67 524289 242 2.0
67 524289 242 -2.0
68 1 1 2.0
68 1 1 -2.0
69 37285089 36683489 2.0
69 37285089 36683489 -2.0
70 1 1 2.0
70 1 1 -2.0
71 2073074553 36683537 2.0
71 2073074553 36683537 -2.0
72 32707 1 2.0
72 32707 1 -2.0
73 33 23 2.0
73 33 23 -2.0
74 23 1 2.0
74 23 1 -2.0
75 242 49 2.0
75 242 49 -2.0
76 1 1 2.0
76 1 1 -2.0
77 37285089 36683521 2.0
77 37285089 36683521 -2.0
78 1 1 2.0
78 1 1 -2.0
79 2073074553 1 2.0
79 2073074553 1 -2.0
80 32707 1 2.0
80 32707 1 -2.0
81 33 1 2.0
81 33 1 -2.0
82 1 1 2.0
82 1 1 -2.0
83 49 1 2.0
83 49 1 -2.0
84 1 1 2.0
84 1 1 -2.0
85 36683521 81 2.0
85 36683521 81 -2.0
86 1 1 2.0
86 1 1 -2.0
402 # number of linear terms in all constraints
1 1 -1.0
1 8 -1.0
1 15 -1.0
1 22 -1.0
1 29 -1.0
1 96 1.0
1 97 -1.0
1 98 -1.0
1 99 -1.0
1 100 -1.0
1 101 -1.0
1 102 -1.0
1 103 -1.0
2 2 -1.0
2 9 -1.0
2 16 -1.0
2 23 -1.0
2 30 -1.0
2 104 1.0
2 105 -1.0
2 106 -1.0
2 107 -1.0
2 108 -1.0
2 109 -1.0
2 110 -1.0
2 111 -1.0
3 3 -1.0
3 10 -1.0
3 17 -1.0
3 24 -1.0
3 31 -1.0
3 112 1.0
3 113 -1.0
3 114 -1.0
3 115 -1.0
3 116 -1.0
3 117 -1.0
3 118 -1.0
3 119 -1.0
4 4 -1.0
4 11 -1.0
4 18 -1.0
4 25 -1.0
4 32 -1.0
4 120 1.0
4 121 -1.0
4 122 -1.0
4 123 -1.0
4 124 -1.0
4 125 -1.0
4 126 -1.0
4 127 -1.0
5 5 -1.0
5 12 -1.0
5 19 -1.0
5 26 -1.0
5 33 -1.0
5 128 1.0
5 129 -1.0
5 130 -1.0
5 131 -1.0
5 132 -1.0
5 133 -1.0
5 134 -1.0
5 135 -1.0
6 6 -1.0
6 13 -1.0
6 20 -1.0
6 27 -1.0
6 34 -1.0
6 136 -1.0
6 137 -1.0
6 138 -1.0
6 139 -1.0
6 140 -1.0
6 141 -1.0
6 142 -1.0
7 7 -1.0
7 14 -1.0
7 21 -1.0
7 28 -1.0
7 35 -1.0
7 143 -1.0
7 144 -1.0
7 145 -1.0
7 146 -1.0
7 147 -1.0
7 148 -1.0
7 149 -1.0
8 96 1.0
8 97 -1.0
8 105 -1.0
8 113 -1.0
8 121 -1.0
8 129 -1.0
8 136 -1.0
8 143 -1.0
8 150 -1.0
9 98 -1.0
9 104 1.0
9 106 -1.0
9 114 -1.0
9 122 -1.0
9 130 -1.0
9 137 -1.0
9 144 -1.0
9 151 -1.0
10 99 -1.0
10 107 -1.0
10 112 1.0
10 115 -1.0
10 123 -1.0
10 131 -1.0
10 138 -1.0
10 145 -1.0
10 152 -1.0
11 100 -1.0
11 108 -1.0
11 116 -1.0
11 120 1.0
11 124 -1.0
11 132 -1.0
11 139 -1.0
11 146 -1.0
11 153 -1.0
12 101 -1.0
12 109 -1.0
12 117 -1.0
12 125 -1.0
12 128 1.0
12 133 -1.0
12 140 -1.0
12 147 -1.0
12 154 -1.0
13 102 -1.0
13 110 -1.0
13 118 -1.0
13 126 -1.0
13 134 -1.0
13 141 -1.0
13 148 -1.0
13 155 -1.0
14 103 -1.0
14 111 -1.0
14 119 -1.0
14 127 -1.0
14 135 -1.0
14 142 -1.0
14 149 -1.0
14 156 -1.0
15 1 -4.0
15 8 -4.0
15 22 -4.0
15 29 -2.0
15 102 -112.0
15 103 -491.0
16 1 -5.0
16 8 -6.0
16 15 -6.0
16 29 -6.0
16 102 -429.0
16 103 -476.0
17 8 -2.0
17 15 -4.0
17 22 -2.0
17 29 -2.0
17 102 -505.0
17 103 -197.0
18 1 -8.0
18 8 -7.0
18 15 -5.0
18 22 -7.0
18 29 -5.0
18 102 -266.0
18 103 -493.0
19 8 -2.0
19 15 -1.0
19 22 -2.0
19 29 -3.0
19 102 -481.0
19 103 -399.0
20 1 -4.0
20 15 -1.0
20 29 -1.0
20 102 -505.0
20 103 -495.0
21 2 -4.0
21 9 -4.0
21 23 -4.0
21 30 -2.0
21 110 -112.0
21 111 -491.0
22 2 -5.0
22 9 -6.0
22 16 -6.0
22 30 -6.0
22 110 -429.0
22 111 -476.0
23 9 -2.0
23 16 -4.0
23 23 -2.0
23 30 -2.0
23 110 -505.0
23 111 -197.0
24 2 -8.0
24 9 -7.0
24 16 -5.0
24 23 -7.0
24 30 -5.0
24 110 -266.0
24 111 -493.0
25 9 -2.0
25 16 -1.0
25 23 -2.0
25 30 -3.0
25 110 -481.0
25 111 -399.0
26 2 -4.0
26 16 -1.0
26 30 -1.0
26 110 -505.0
26 111 -495.0
27 3 -4.0
27 10 -4.0
27 24 -4.0
27 31 -2.0
27 118 -112.0
27 119 -491.0
28 3 -5.0
28 10 -6.0
28 17 -6.0
28 31 -6.0
28 118 -429.0
28 119 -476.0
29 10 -2.0
29 17 -4.0
29 24 -2.0
29 31 -2.0
29 118 -505.0
29 119 -197.0
30 3 -8.0
30 10 -7.0
30 17 -5.0
30 24 -7.0
30 31 -5.0
30 118 -266.0
30 119 -493.0
31 10 -2.0
31 17 -1.0
31 24 -2.0
31 31 -3.0
31 118 -481.0
31 119 -399.0
32 3 -4.0
32 17 -1.0
32 31 -1.0
32 118 -505.0
32 119 -495.0
33 4 -4.0
33 11 -4.0
33 25 -4.0
33 32 -2.0
33 126 -112.0
33 127 -491.0
34 4 -5.0
34 11 -6.0
34 18 -6.0
34 32 -6.0
34 126 -429.0
34 127 -476.0
35 11 -2.0
35 18 -4.0
35 25 -2.0
35 32 -2.0
35 126 -505.0
35 127 -197.0
36 4 -8.0
36 11 -7.0
36 18 -5.0
36 25 -7.0
36 32 -5.0
36 126 -266.0
36 127 -493.0
37 11 -2.0
37 18 -1.0
37 25 -2.0
37 32 -3.0
37 126 -481.0
37 127 -399.0
38 4 -4.0
38 18 -1.0
38 32 -1.0
38 126 -505.0
38 127 -495.0
39 5 -4.0
39 12 -4.0
39 26 -4.0
39 33 -2.0
39 134 -112.0
39 135 -491.0
40 5 -5.0
40 12 -6.0
40 19 -6.0
40 33 -6.0
40 134 -429.0
40 135 -476.0
41 12 -2.0
41 19 -4.0
41 26 -2.0
41 33 -2.0
41 134 -505.0
41 135 -197.0
42 5 -8.0
42 12 -7.0
42 19 -5.0
42 26 -7.0
42 33 -5.0
42 134 -266.0
42 135 -493.0
43 12 -2.0
43 19 -1.0
43 26 -2.0
43 33 -3.0
43 134 -481.0
43 135 -399.0
44 5 -4.0
44 19 -1.0
44 33 -1.0
44 134 -505.0
44 135 -495.0
45 6 -4.0
45 13 -4.0
45 27 -4.0
45 34 -2.0
45 141 -112.0
45 142 -491.0
46 6 -5.0
46 13 -6.0
46 20 -6.0
46 34 -6.0
46 141 -429.0
46 142 -476.0
47 13 -2.0
47 20 -4.0
47 27 -2.0
47 34 -2.0
47 141 -505.0
47 142 -197.0
48 6 -8.0
48 13 -7.0
48 20 -5.0
48 27 -7.0
48 34 -5.0
48 141 -266.0
48 142 -493.0
49 13 -2.0
49 20 -1.0
49 27 -2.0
49 34 -3.0
49 141 -481.0
49 142 -399.0
50 6 -4.0
50 20 -1.0
50 34 -1.0
50 141 -505.0
50 142 -495.0
51 7 -4.0
51 14 -4.0
51 28 -4.0
51 35 -2.0
51 148 -112.0
51 149 -491.0
52 7 -5.0
52 14 -6.0
52 21 -6.0
52 35 -6.0
52 148 -429.0
52 149 -476.0
53 14 -2.0
53 21 -4.0
53 28 -2.0
53 35 -2.0
53 148 -505.0
53 149 -197.0
54 7 -8.0
54 14 -7.0
54 21 -5.0
54 28 -7.0
54 35 -5.0
54 148 -266.0
54 149 -493.0
55 14 -2.0
55 21 -1.0
55 28 -2.0
55 35 -3.0
55 148 -481.0
55 149 -399.0
56 7 -4.0
56 21 -1.0
56 35 -1.0
56 148 -505.0
56 149 -495.0
1.79769313486232E+308 # value for infinity
0.0 # default left-hand-side value
46 # number of non-default left-hand-sides
6 -68.0
7 -70.0
13 -58.0
14 -120.0
45 -2924.0
46 -23256.0
47 -15776.0
48 -18020.0
49 -26724.0
50 -20332.0
51 -31640.0
52 -4480.0
53 -700.0
54 -23380.0
55 -10010.0
56 -17080.0
57 -6016.0
58 -22272.0
59 -15744.0
60 -256.0
61 -10752.0
62 -6400.0
63 -4250.0
64 -3230.0
65 -1870.0
66 -84796.0
67 -884.0
68 -3332.0
69 -10080.0
70 -4914.0
71 -46242.0
72 -5418.0
73 -16506.0
74 -4284.0
75 -756.0
76 -9576.0
77 -8540.0
78 -11424.0
79 -3780.0
80 -5908.0
81 -60000.0
82 -421440.0
83 -16800.0
84 -4200.0
85 -18960.0
86 -9360.0
0.0 # default right-hand-side value
46 # number of non-default right-hand-sides
6 -68.0
7 -70.0
13 -58.0
14 -120.0
45 1.79769313486232E+308
46 1.79769313486232E+308
47 1.79769313486232E+308
48 1.79769313486232E+308
49 1.79769313486232E+308
50 1.79769313486232E+308
51 1.79769313486232E+308
52 1.79769313486232E+308
53 1.79769313486232E+308
54 1.79769313486232E+308
55 1.79769313486232E+308
56 1.79769313486232E+308
57 -6016.0
58 -22272.0
59 -15744.0
60 -256.0
61 -10752.0
62 -6400.0
63 -4250.0
64 -3230.0
65 -1870.0
66 -84796.0
67 -884.0
68 -3332.0
69 -10080.0
70 -4914.0
71 -46242.0
72 -5418.0
73 -16506.0
74 -4284.0
75 -756.0
76 -9576.0
77 -8540.0
78 -11424.0
79 -3780.0
80 -5908.0
81 -60000.0
82 -421440.0
83 -16800.0
84 -4200.0
85 -18960.0
86 -9360.0
0.0 # default variable lower bound value
0 # number of non-default variable lower bounds
100000.0 # default variable upper bound value
65 # number of non-default variable upper bounds
36 45.0
37 52.0
38 189.0
39 33.0
40 210.0
41 24.0
42 120.0
43 30.0
44 30.0
45 12234.0
46 98.0
47 656.0
48 142.0
49 420.0
50 200.0
51 13.0
52 637.0
53 24.0
54 20.0
55 25.0
56 15.0
57 25.0
58 454.0
59 256.0
60 350.0
61 48.0
62 260.0
63 21.0
64 278.0
65 12.0
66 139.0
67 400.0
68 435.0
69 37.0
70 378.0
71 124.0
72 245.0
73 125.0
74 85.0
75 14728.0
76 124.0
77 754.0
78 222.0
79 459.0
80 567.0
81 56.0
82 768.0
83 58.0
84 47.0
85 367.0
86 320.0
87 433.0
88 589.0
89 467.0
90 850.0
91 3560.0
92 400.0
93 56.0
94 436.0
95 90.0
96 64.0
104 34.0
112 126.0
120 28.0
128 120.0
0.0 # default variable primal value in starting point
0 # number of non-default variable primal values in starting point
0.0 # default constraint dual value in starting point
0 # number of non-default constraint dual values in starting point
0.0 # default variable bound dual value in starting point
0 # number of non-default variable bound dual values in starting point
0 # number of non-default variable names
0 # number of non-default constraint names
